c preprocessed version of 1c75_graph, 69 vertices, 683 edges
p td 69 683
67 68
66 68
66 67
65 68
65 67
65 66
64 67
64 66
64 65
63 67
63 66
63 65
63 64
62 66
62 65
62 64
62 63
61 65
61 64
61 63
61 62
60 67
60 65
60 64
60 63
60 62
60 61
59 66
59 64
59 63
59 62
59 61
59 60
58 65
58 63
58 62
58 61
58 60
58 59
57 64
57 62
57 61
57 60
57 59
57 58
56 64
56 63
56 61
56 60
56 59
56 58
56 57
55 63
55 62
55 59
55 58
55 57
55 56
54 58
54 57
54 56
54 55
53 60
53 58
53 57
53 56
53 55
53 54
52 64
52 63
52 61
52 60
52 59
52 58
52 57
52 56
52 55
52 54
52 53
51 64
51 61
51 60
51 57
51 56
51 53
51 52
50 53
50 52
50 51
49 53
49 51
49 50
48 51
48 50
48 49
47 64
47 60
47 57
47 52
47 51
47 49
47 48
46 51
46 48
46 47
45 47
45 46
44 64
44 51
44 49
44 48
44 47
44 46
44 45
43 51
43 50
43 49
43 48
43 47
43 46
43 45
43 44
42 61
42 58
42 57
42 53
42 50
42 49
42 48
42 44
42 43
41 61
41 58
41 57
41 54
41 53
41 52
41 51
41 50
41 49
41 43
41 42
40 64
40 63
40 61
40 60
40 59
40 58
40 57
40 56
40 53
40 52
40 51
40 50
40 49
40 48
40 47
40 44
40 43
40 42
40 41
39 64
39 61
39 60
39 57
39 52
39 51
39 49
39 48
39 47
39 46
39 45
39 44
39 43
39 42
39 41
39 40
38 61
38 58
38 57
38 49
38 45
38 44
38 43
38 42
38 41
38 40
38 39
37 65
37 64
37 62
37 61
37 60
37 59
37 58
37 57
37 56
37 55
37 54
37 53
37 52
37 42
37 41
37 40
37 39
37 38
36 67
36 65
36 64
36 63
36 62
36 61
36 60
36 57
36 52
36 51
36 47
36 44
36 41
36 40
36 39
36 38
36 37
35 64
35 61
35 47
35 45
35 44
35 40
35 39
35 38
35 37
35 36
34 65
34 62
34 61
34 58
34 57
34 42
34 41
34 39
34 38
34 37
34 36
34 35
33 66
33 65
33 64
33 63
33 62
33 61
33 59
33 58
33 57
33 41
33 40
33 37
33 36
33 35
33 34
32 68
32 65
32 62
32 61
32 39
32 38
32 37
32 36
32 35
32 34
32 33
31 65
31 64
31 61
31 60
31 52
31 47
31 45
31 44
31 40
31 39
31 38
31 36
31 35
31 34
31 33
31 32
30 68
30 64
30 45
30 44
30 39
30 36
30 35
30 32
30 31
29 68
29 67
29 31
29 30
28 68
28 67
28 66
28 65
28 64
28 36
28 33
28 32
28 31
28 30
28 29
27 68
27 67
27 65
27 64
27 63
27 61
27 60
27 57
27 52
27 51
27 47
27 44
27 40
27 39
27 38
27 37
27 36
27 35
27 33
27 32
27 31
27 30
27 29
27 28
26 68
26 67
26 64
26 31
26 30
26 29
26 28
26 27
25 68
25 67
25 64
25 63
25 30
25 27
25 26
24 67
24 64
24 63
24 61
24 60
24 57
24 52
24 51
24 47
24 46
24 44
24 40
24 39
24 36
24 35
24 31
24 30
24 28
24 27
24 26
24 25
23 64
23 31
23 30
23 29
23 27
23 26
23 25
23 24
22 64
22 47
22 46
22 45
22 44
22 39
22 36
22 35
22 31
22 30
22 27
22 26
22 24
22 23
21 51
21 48
21 47
21 46
21 45
21 44
21 39
21 27
21 24
21 23
21 22
20 48
20 47
20 46
20 22
20 21
19 22
19 21
19 20
18 46
18 26
18 25
18 24
18 23
18 22
18 21
18 20
18 19
17 67
17 26
17 25
17 24
17 23
17 22
17 19
17 18
16 67
16 64
16 63
16 60
16 52
16 51
16 47
16 40
16 39
16 36
16 31
16 27
16 26
16 25
16 24
16 23
16 18
16 17
15 67
15 25
15 24
15 23
15 19
15 18
15 17
15 16
14 25
14 24
14 19
14 17
14 16
14 15
13 25
13 24
13 23
13 21
13 20
13 19
13 18
13 17
13 16
13 15
13 14
12 64
12 63
12 60
12 57
12 52
12 51
12 48
12 47
12 46
12 44
12 40
12 39
12 36
12 31
12 27
12 25
12 24
12 23
12 22
12 21
12 20
12 19
12 18
12 17
12 16
12 14
12 13
11 51
11 48
11 47
11 21
11 20
11 19
11 14
11 13
11 12
10 64
10 60
10 24
10 19
10 16
10 15
10 14
10 13
10 12
10 11
9 64
9 61
9 60
9 57
9 56
9 53
9 52
9 51
9 50
9 48
9 47
9 40
9 39
9 36
9 24
9 16
9 12
9 11
9 10
8 60
8 56
8 52
8 51
8 14
8 11
8 10
8 9
7 63
7 60
7 24
7 16
7 15
7 14
7 12
7 11
7 10
7 9
7 8
6 67
6 66
6 64
6 63
6 62
6 61
6 60
6 59
6 57
6 56
6 52
6 51
6 47
6 40
6 39
6 36
6 31
6 27
6 25
6 24
6 23
6 16
6 15
6 14
6 13
6 12
6 10
6 9
6 8
6 7
5 64
5 63
5 61
5 60
5 59
5 57
5 56
5 55
5 53
5 52
5 51
5 47
5 40
5 39
5 36
5 24
5 16
5 9
5 8
5 7
5 6
4 63
4 60
4 56
4 52
4 9
4 8
4 7
4 6
4 5
3 67
3 66
3 64
3 63
3 60
3 59
3 25
3 24
3 16
3 15
3 14
3 12
3 10
3 8
3 7
3 6
3 5
3 4
2 67
2 66
2 64
2 63
2 62
2 61
2 60
2 59
2 56
2 52
2 40
2 36
2 24
2 16
2 9
2 7
2 6
2 5
2 4
2 3
1 63
1 60
1 59
1 56
1 8
1 7
1 5
1 4
1 3
1 2
0 63
0 62
0 60
0 59
0 58
0 57
0 56
0 55
0 54
0 53
0 52
0 40
0 9
0 8
0 6
0 5
0 4
0 2
0 1
